100
4 4
5 0
42 0
32 4
31 1
31 4
22 3
15 4
4 0
25 1
24 3
34 4
25 2
9 3
38 4
7 0
6 4
9 4
29 4
28 3
16 0
37 0
25 4
20 4
29 2
15 3
4 2
4 3
18 0
2 2
31 0
40 0
36 4
33 2
42 1
0 4
14 4
25 3
18 1
11 4
22 2
36 0
28 0
18 4
21 0
11 1
13 4
23 4
5 4
41 1
43 1
39 0
6 0
43 4
2 4
1 3
13 3
20 0
32 2
28 2
0 3
6 3
40 4
21 4
6 1
3 0
16 4
22 0
27 3
13 2
33 3
42 4
2 0
19 4
43 0
38 0
39 4
24 0
22 1
24 4
29 0
21 1
1 0
13 1
30 2
15 0
23 2
30 4
19 0
33 4
7 4
23 0
1 4
11 0
42 3
38 3
39 1
27 0
41 3
12 1

